NAME: Graph
TYPE: TSP
COMMENT: 5 Airports around the globe (Padberg/Rinaldi)
DIMENSION: 5
EDGE_WEIGHT_TYPE: GEO
DISPLAY_DATA_TYPE: COORD_DISPLAY
NODE_COORD_SECTION
1 -6 12
2 3 5
3 29 3
4 6 7
5 75 2
6 112 116
7 230 15
8 15 130
9 101 369
10 120 -107
11 200 200
EOF